
******************************************************************************
This program contains Ipopt, a library for large-scale nonlinear optimization.
 Ipopt is released as open source code under the Eclipse Public License (EPL).
         For more information visit https://github.com/coin-or/Ipopt
******************************************************************************

This is Ipopt version 3.14.19, running with linear solver MUMPS 5.8.1.

Number of nonzeros in equality constraint Jacobian...:     4389
Number of nonzeros in inequality constraint Jacobian.:        0
Number of nonzeros in Lagrangian Hessian.............:     1050

Total number of variables............................:     1287
                     variables with only lower bounds:        0
                variables with lower and upper bounds:      457
                     variables with only upper bounds:        0
Total number of equality constraints.................:     1274
Total number of inequality constraints...............:        0
        inequality constraints with only lower bounds:        0
   inequality constraints with lower and upper bounds:        0
        inequality constraints with only upper bounds:        0

iter    objective    inf_pr   inf_du lg(mu)  ||d||  lg(rg) alpha_du alpha_pr  ls
   0  9.8479350e+00 9.90e+01 2.52e-04  -1.0 0.00e+00    -  0.00e+00 0.00e+00   0
   1  9.8943220e+00 1.68e+01 1.88e+01  -1.0 9.99e+01    -  4.06e-02 8.30e-01h  1
   2  9.9203830e+00 1.21e+01 1.36e+01  -1.0 6.38e+01    -  4.66e-01 2.81e-01h  1
   3  1.0017478e+01 1.53e+00 1.70e+00  -1.0 1.21e+01    -  8.03e-01 8.73e-01h  1
   4  1.0192199e+01 1.81e+00 5.18e-02  -1.0 1.79e+00    -  9.89e-01 1.00e+00h  1
   5  1.0227439e+01 1.47e-01 2.34e-04  -1.0 4.32e-01    -  1.00e+00 1.00e+00h  1
   6  1.0059915e+01 6.21e-01 1.99e+00  -2.5 1.75e+00    -  5.55e-01 1.00e+00h  1
   7  9.8728551e+00 5.13e+00 2.58e+00  -2.5 3.13e+00    -  5.95e-01 1.00e+00h  1
   8  9.8505189e+00 7.16e+01 2.45e-03  -2.5 1.49e+02    -  1.00e+00 1.00e+00h  1
   9  9.8496302e+00 6.07e+00 1.85e-05  -2.5 1.48e+02    -  1.00e+00 1.00e+00h  1
iter    objective    inf_pr   inf_du lg(mu)  ||d||  lg(rg) alpha_du alpha_pr  ls
  10  9.8496023e+00 2.52e-02 7.53e-08  -2.5 1.07e+01    -  1.00e+00 1.00e+00h  1
  11  9.8482131e+00 1.14e+00 4.02e-04  -3.8 4.23e+00    -  1.00e+00 1.00e+00h  1
  12  9.8481777e+00 4.28e-03 1.82e-07  -3.8 1.34e+00    -  1.00e+00 1.00e+00h  1
  13  9.8481767e+00 6.56e-08 5.90e-11  -3.8 4.97e-03    -  1.00e+00 1.00e+00h  1
  14  9.8481698e+00 1.65e-03 4.13e-03  -5.7 1.08e-01    -  9.30e-01 1.00e+00h  1
  15  9.8479155e+00 1.45e-04 1.48e-04  -5.7 4.38e-01    -  6.38e-01 9.21e-01h  1
  16  9.8479203e+00 7.86e-05 1.54e-04  -5.7 1.35e-01    -  9.07e-01 4.57e-01f  2
  17  9.8479147e+00 2.13e-09 1.52e-09  -5.7 1.04e-02    -  1.00e+00 1.00e+00h  1
  18  9.8478972e+00 1.17e-08 6.06e-05  -8.6 1.23e-01    -  7.57e-01 5.11e-01h  1
  19  9.8478970e+00 6.20e-09 2.89e-04  -8.6 6.32e-04    -  1.00e+00 4.70e-01h  1
iter    objective    inf_pr   inf_du lg(mu)  ||d||  lg(rg) alpha_du alpha_pr  ls
  20  9.8478970e+00 1.64e-12 5.61e-15  -8.6 4.50e-06    -  1.00e+00 1.00e+00f  1

Number of Iterations....: 20

                                   (scaled)                 (unscaled)
Objective...............:   9.8478970362751159e+00    9.8478970362751159e+00
Dual infeasibility......:   5.6066262743570405e-15    5.6066262743570405e-15
Constraint violation....:   1.6369128275119635e-12    1.6369128275119635e-12
Variable bound violation:   0.0000000000000000e+00    0.0000000000000000e+00
Complementarity.........:   2.5206587024293611e-09    2.5206587024293611e-09
Overall NLP error.......:   2.5206587024293611e-09    2.5206587024293611e-09


Number of objective function evaluations             = 22
Number of objective gradient evaluations             = 21
Number of equality constraint evaluations            = 22
Number of inequality constraint evaluations          = 0
Number of equality constraint Jacobian evaluations   = 21
Number of inequality constraint Jacobian evaluations = 0
Number of Lagrangian Hessian evaluations             = 20
Total seconds in IPOPT                               = 0.087

EXIT: Optimal Solution Found.
